
Cover cuts applied:  1
Implied bound cuts applied:  2
Flow cuts applied:  4
Mixed integer rounding cuts applied:  5
Zero-half cuts applied:  1
Lift and project cuts applied:  1
Gomory fractional cuts applied:  2

Root node processing (before b&c):
  Real time             =    0.04 sec. (12.49 ticks)
Parallel b&c, 4 threads:
  Real time             =    0.00 sec. (0.00 ticks)
  Sync time (average)   =    0.00 sec.
  Wait time (average)   =    0.00 sec.
                          ------------
Total (root+branch&cut) =    0.04 sec. (12.49 ticks)
Version identifier: 12.10.0.0 | 2019-11-26 | 843d4de
CPXPARAM_MIP_Interval                            10
CPXPARAM_MIP_Tolerances_AbsMIPGap                0.98999999999999999
Tried aggregator 2 times.
MIP Presolve eliminated 1551 rows and 1005 columns.
MIP Presolve modified 9 coefficients.
Aggregator did 39 substitutions.
Reduced MIP has 139 rows, 132 columns, and 469 nonzeros.
Reduced MIP has 58 binaries, 74 generals, 0 SOSs, and 0 indicators.
Presolve time = 0.00 sec. (1.61 ticks)
Probing fixed 0 vars, tightened 7 bounds.
Probing changed sense of 4 constraints.
Probing time = 0.00 sec. (0.03 ticks)
Tried aggregator 1 time.
Detecting symmetries...
MIP Presolve eliminated 7 rows and 6 columns.
MIP Presolve modified 9 coefficients.
Reduced MIP has 132 rows, 126 columns, and 444 nonzeros.
Reduced MIP has 54 binaries, 72 generals, 0 SOSs, and 0 indicators.
Presolve time = 0.00 sec. (0.31 ticks)
Probing time = 0.00 sec. (0.02 ticks)
Clique table members: 12.
MIP emphasis: balance optimality and feasibility.
MIP search method: dynamic search.
Parallel mode: deterministic, using up to 4 threads.
Root relaxation solution time = 0.00 sec. (1.33 ticks)

        Nodes                                         Cuts/
   Node  Left     Objective  IInf  Best Integer    Best Bound    ItCnt     Gap

      0     0       15.3333    30                     15.3333      193         
      0     0       15.3333    30                    Cuts: 11      224         
      0     0       15.3333    30                     Cuts: 5      278         
*     0+    0                           14.0000       15.3333             9.52%
      0     0        cutoff             14.0000       14.0000      278    0.00%
Elapsed time = 0.04 sec. (12.58 ticks, tree = 0.01 MB, solutions = 1)
the number of Nodes = 0
